\ENCODING=ISO-8859-1
\Problem name: 

Maximize
 obj: x1 + x2 + x3 + x4 + x5 + x6 + x7 + x8 + x9 + x10 + x11 + x12 + x13 + x14
      + x15 + x16 + x17 + x18 + x19 + x20 + x21 + x22 + x23 + x24 + x25 + x26
      + x27 + x28 + x29 + x30 + x31 + x32 + x33 + x34 + x35 + x36 + x37 + x38
      + x39 + x40 + x41 + x42 + x43 + x44 + x45 + x46 + x47 + x48 + x49 + x50
      + x51 + x52 + x53 + x54 + x55 + x56 + x57 + x58 + x59 + x60 + x61 + x62
      + x63 + x64 + x65 + x66 + x67 + x68 + x69 + x70 + x71 + x72 + x73 + x74
      + x75 + x76 + x77 + x78 + x79 + x80 + x81 + x82 + x83 + x84 + x85 + x86
      + x87 + x88 + x89 + x90 + x91 + x92 + x93 + x94 + x95 + x96 + x97 + x98
      + x99 + x100 + x101 + x102 + x103 + x104 + x105 + x106 + x107 + x108
      + x109 + x110 + x111 + x112 + x113 + x114 + x115 + x116 + x117 + x118
      + x119 + x120 + x121 + x122 + x123 + x124 + x125 + x126 + x127 + x128
      + x129 + x130 + x131 + x132 + x133 + x134 + x135 + x136 + x137 + x138
      + x139 + x140 + x141 + x142 + x143 + x144 + x145 + x146 + x147 + x148
      + x149 + x150
Subject To
 clq1:   x2 + x10 + x27 + x35 + x40 + x42 + x43 + x44 + x51 + x59 + x63 + x65
         + x68 + x70 + x73 + x75 + x80 + x90 + x91 + x107 + x111 + x113 + x132
         + x134 <= 1
 clq2:   x4 + x12 + x14 + x26 + x37 + x53 + x57 + x58 + x60 + x74 + x77 + x85
         + x87 + x88 + x96 + x99 + x105 + x120 + x122 + x125 + x129 + x130
         + x142 + x144 + x148 <= 1
 clq3:   x2 + x6 + x7 + x8 + x19 + x28 + x36 + x42 + x48 + x54 + x55 + x56
         + x62 + x73 + x81 + x83 + x101 + x108 + x111 + x116 + x132 + x138
         + x145 <= 1
 clq4:   x14 + x25 + x27 + x38 + x42 + x43 + x44 + x63 + x68 + x70 + x75 + x84
         + x86 + x90 + x91 + x104 + x118 + x123 + x124 + x126 + x127 + x130
         + x138 + x139 + x147 + x150 <= 1
 clq5:   x4 + x5 + x7 + x12 + x14 + x43 + x55 + x70 + x71 + x80 + x82 + x84
         + x87 + x89 + x90 + x91 + x92 + x96 + x104 + x110 + x118 + x123 + x133
         + x139 + x146 <= 1
 clq6:   x1 + x2 + x4 + x12 + x18 + x30 + x35 + x49 + x52 + x57 + x62 + x64
         + x65 + x70 + x78 + x84 + x91 + x96 + x97 + x98 + x100 + x117 + x119
         + x134 + x141 + x145 + x146 <= 1
 clq7:   x5 + x10 + x18 + x20 + x25 + x26 + x35 + x39 + x40 + x51 + x60 + x63
         + x65 + x80 + x87 + x89 + x93 + x94 + x100 + x103 + x110 + x111 + x115
         + x126 + x132 + x147 <= 1
 clq8:   x8 + x11 + x13 + x17 + x18 + x29 + x33 + x39 + x49 + x57 + x64 + x66
         + x69 + x74 + x76 + x95 + x102 + x107 + x112 + x116 + x118 + x119
         + x121 + x136 + x140 + x146 + x150 <= 1
 clq9:   x1 + x5 + x7 + x8 + x12 + x13 + x17 + x25 + x31 + x32 + x41 + x70
         + x77 + x82 + x91 + x94 + x95 + x101 + x118 + x123 + x127 + x129
         + x131 + x133 + x139 + x140 + x146 <= 1
 clq10:  x5 + x10 + x12 + x14 + x18 + x22 + x23 + x33 + x49 + x62 + x64 + x72
         + x80 + x81 + x82 + x84 + x92 + x93 + x100 + x104 + x114 + x115 + x118
         + x122 + x147 + x149 <= 1
 clq11:  x1 + x2 + x16 + x23 + x32 + x50 + x51 + x52 + x58 + x59 + x63 + x65
         + x74 + x78 + x79 + x80 + x89 + x91 + x98 + x103 + x114 + x117 + x119
         + x132 <= 1
 clq12:  x4 + x11 + x12 + x13 + x19 + x23 + x29 + x33 + x57 + x59 + x66 + x74
         + x78 + x93 + x97 + x105 + x116 + x121 + x133 + x134 + x136 + x140
         + x142 + x146 + x150 <= 1
 clq13:  x1 + x5 + x8 + x12 + x21 + x23 + x31 + x32 + x45 + x46 + x57 + x62
         + x67 + x71 + x72 + x82 + x85 + x91 + x100 + x101 + x102 + x104 + x109
         + x110 + x122 + x126 + x136 + x140 + x142 + x150 <= 1
 clq14:  x9 + x13 + x15 + x16 + x25 + x28 + x30 + x34 + x42 + x58 + x59 + x69
         + x75 + x76 + x94 + x97 + x101 + x120 + x125 + x127 + x128 + x138 <= 1
 clq15:  x6 + x14 + x17 + x19 + x24 + x28 + x54 + x55 + x58 + x60 + x62 + x73
         + x74 + x81 + x87 + x88 + x96 + x102 + x104 + x108 + x127 + x132
         + x145 <= 1
 clq16:  x4 + x10 + x18 + x20 + x24 + x25 + x29 + x30 + x33 + x36 + x38 + x62
         + x69 + x75 + x77 + x78 + x89 + x92 + x94 + x100 + x112 + x115 + x118
         + x126 + x139 + x144 + x147 <= 1
 clq17:  x6 + x9 + x11 + x28 + x35 + x37 + x41 + x48 + x53 + x54 + x58 + x60
         + x73 + x74 + x81 + x83 + x108 + x127 + x129 + x136 + x143 + x144
         + x145 <= 1
 clq18:  x5 + x7 + x8 + x17 + x29 + x31 + x41 + x45 + x47 + x52 + x61 + x62
         + x72 + x87 + x100 + x101 + x103 + x104 + x108 + x111 + x116 + x126
         + x132 + x136 + x140 + x150 <= 1
 clq19:  x1 + x3 + x4 + x10 + x21 + x26 + x27 + x28 + x35 + x53 + x59 + x63
         + x66 + x69 + x78 + x89 + x94 + x96 + x110 + x112 + x125 + x126 + x129
         + x141 + x143 + x145 + x148 + x149 <= 1
 clq20:  x1 + x5 + x7 + x8 + x9 + x11 + x12 + x13 + x17 + x31 + x32 + x35 + x37
         + x41 + x46 + x60 + x70 + x85 + x94 + x100 + x108 + x126 + x129 + x136
         + x138 + x140 + x142 + x150 <= 1
 clq21:  x15 + x17 + x18 + x20 + x24 + x28 + x35 + x40 + x53 + x60 + x62 + x64
         + x71 + x74 + x79 + x83 + x97 + x112 + x116 + x119 + x124 + x126 <= 1
 clq22:  x1 + x7 + x12 + x16 + x17 + x29 + x37 + x39 + x45 + x53 + x56 + x66
         + x69 + x90 + x94 + x95 + x101 + x105 + x121 + x123 + x124 + x133
         + x140 + x141 + x142 <= 1
 clq23:  x10 + x19 + x22 + x23 + x27 + x28 + x34 + x42 + x47 + x51 + x56 + x76
         + x83 + x86 + x89 + x96 + x134 + x137 + x139 + x144 + x145 + x149 <= 1
 clq24:  x5 + x9 + x12 + x33 + x34 + x46 + x48 + x49 + x50 + x57 + x61 + x66
         + x67 + x72 + x74 + x81 + x85 + x93 + x104 + x106 + x122 + x125 + x128
         + x133 + x136 <= 1
 clq25:  x5 + x6 + x18 + x24 + x33 + x35 + x52 + x60 + x64 + x72 + x74 + x78
         + x81 + x95 + x103 + x107 + x112 + x115 + x116 + x119 + x121 + x125
         + x126 + x130 + x134 + x144 <= 1
 clq26:  x1 + x5 + x11 + x16 + x21 + x34 + x44 + x45 + x47 + x52 + x57 + x59
         + x62 + x67 + x69 + x77 + x102 + x108 + x109 + x120 + x125 + x127
         + x132 + x136 + x142 + x143 + x149 <= 1
 clq27:  x3 + x6 + x7 + x14 + x25 + x28 + x37 + x39 + x42 + x45 + x53 + x54
         + x56 + x82 + x83 + x88 + x96 + x110 + x111 + x122 + x130 + x133
         + x137 + x149 <= 1
 clq28:  x5 + x11 + x18 + x19 + x21 + x23 + x31 + x32 + x45 + x48 + x52 + x58
         + x62 + x63 + x73 + x79 + x91 + x99 + x104 + x118 + x130 + x132 + x138
         + x143 + x150 <= 1
 clq29:  x1 + x12 + x17 + x18 + x26 + x31 + x32 + x37 + x45 + x46 + x56 + x57
         + x61 + x63 + x70 + x82 + x83 + x88 + x95 + x119 + x122 + x123 + x126
         + x131 + x134 + x136 + x140 + x150 <= 1
 clq30:  x5 + x6 + x8 + x17 + x19 + x39 + x41 + x55 + x74 + x81 + x86 + x87
         + x91 + x101 + x102 + x104 + x106 + x112 + x116 + x126 + x128 + x132
         + x136 + x142 + x143 + x150 <= 1
 clq31:  x3 + x8 + x9 + x10 + x17 + x18 + x22 + x39 + x40 + x49 + x50 + x66
         + x75 + x80 + x87 + x91 + x99 + x103 + x104 + x106 + x111 + x112
         + x114 <= 1
 clq32:  x3 + x5 + x12 + x25 + x37 + x41 + x44 + x52 + x64 + x70 + x72 + x79
         + x84 + x90 + x92 + x98 + x101 + x105 + x109 + x122 + x124 + x130
         + x133 + x144 + x150 <= 1
 clq33:  x10 + x14 + x23 + x27 + x32 + x40 + x42 + x46 + x49 + x51 + x54 + x59
         + x65 + x68 + x72 + x90 + x91 + x97 + x107 + x110 + x117 + x129 + x135
         + x139 + x145 + x147 + x148 <= 1
 clq34:  x1 + x7 + x22 + x31 + x36 + x38 + x44 + x45 + x46 + x55 + x72 + x93
         + x95 + x98 + x101 + x103 + x105 + x109 + x111 + x135 + x136 + x143
         + x144 + x146 + x150 <= 1
 clq35:  x3 + x14 + x17 + x18 + x19 + x33 + x39 + x42 + x49 + x66 + x70 + x73
         + x81 + x83 + x88 + x91 + x96 + x104 + x111 + x118 + x124 + x133
         + x137 + x150 <= 1
 clq36:  x14 + x19 + x21 + x23 + x28 + x41 + x42 + x48 + x59 + x67 + x68 + x81
         + x82 + x86 + x104 + x121 + x127 + x133 + x138 + x140 + x142 + x145
         + x148 + x149 <= 1
 clq37:  x1 + x5 + x6 + x11 + x12 + x16 + x17 + x32 + x35 + x52 + x57 + x62
         + x74 + x86 + x89 + x99 + x100 + x105 + x106 + x118 + x122 + x125
         + x132 + x134 + x136 + x140 + x149 + x150 <= 1
 clq38:  x6 + x17 + x19 + x26 + x31 + x40 + x41 + x53 + x54 + x56 + x58 + x60
         + x62 + x77 + x79 + x85 + x87 + x96 + x99 + x101 + x117 + x119 + x132
         + x144 <= 1
 clq39:  x9 + x11 + x12 + x13 + x23 + x30 + x31 + x32 + x36 + x38 + x48 + x55
         + x57 + x67 + x69 + x78 + x81 + x85 + x108 + x109 + x127 + x128 + x129
         + x133 + x136 + x144 + x150 <= 1
 clq40:  x2 + x12 + x16 + x18 + x19 + x21 + x22 + x49 + x56 + x58 + x62 + x74
         + x77 + x80 + x84 + x85 + x87 + x89 + x96 + x99 + x102 + x108 + x113
         + x114 + x119 + x120 <= 1
 clq41:  x4 + x18 + x22 + x24 + x31 + x32 + x46 + x51 + x55 + x65 + x70 + x72
         + x83 + x88 + x91 + x92 + x101 + x107 + x123 + x131 + x134 + x139
         + x144 + x146 <= 1
 clq42:  x15 + x23 + x24 + x27 + x28 + x35 + x38 + x47 + x51 + x59 + x65 + x67
         + x75 + x78 + x86 + x89 + x91 + x92 + x93 + x94 + x107 + x123 + x126
         + x128 + x131 + x141 + x144 <= 1
 clq43:  x1 + x4 + x26 + x29 + x31 + x33 + x37 + x45 + x61 + x83 + x85 + x97
         + x100 + x101 + x103 + x111 + x114 + x115 + x120 + x125 + x127 + x128
         + x131 + x134 <= 1
 clq44:  x10 + x12 + x14 + x19 + x21 + x26 + x28 + x40 + x41 + x42 + x45 + x46
         + x59 + x65 + x74 + x79 + x82 + x83 + x91 + x96 + x120 + x126 + x129
         + x142 + x144 + x145 <= 1
 clq45:  x7 + x11 + x22 + x29 + x33 + x37 + x38 + x39 + x43 + x51 + x54 + x58
         + x70 + x81 + x84 + x90 + x100 + x105 + x115 + x122 + x124 + x135
         + x136 + x147 + x148 <= 1
 clq46:  x2 + x3 + x16 + x23 + x27 + x32 + x34 + x36 + x42 + x45 + x48 + x56
         + x63 + x64 + x69 + x82 + x88 + x105 + x109 + x119 + x122 + x129
         + x135 <= 1
 clq47:  x5 + x12 + x14 + x38 + x41 + x42 + x44 + x49 + x55 + x62 + x70 + x73
         + x84 + x90 + x96 + x98 + x104 + x108 + x125 + x127 + x133 + x138
         + x139 + x149 + x150 <= 1
 clq48:  x8 + x9 + x20 + x21 + x22 + x23 + x32 + x37 + x67 + x68 + x69 + x85
         + x100 + x101 + x103 + x108 + x109 + x115 + x120 + x126 + x127 + x129
         + x131 + x136 + x137 + x142 + x143 + x144 + x145 + x147 <= 1
 clq49:  x2 + x8 + x10 + x27 + x33 + x51 + x52 + x64 + x68 + x69 + x78 + x80
         + x90 + x92 + x94 + x97 + x107 + x112 + x115 + x121 + x126 + x139 <= 1
 clq50:  x3 + x19 + x29 + x33 + x42 + x44 + x68 + x75 + x76 + x80 + x84 + x86
         + x89 + x91 + x99 + x101 + x103 + x111 + x113 + x120 + x128 + x132
         + x134 <= 1
 clq51:  x15 + x17 + x20 + x25 + x32 + x45 + x47 + x52 + x55 + x57 + x58 + x66
         + x72 + x83 + x88 + x89 + x91 + x97 + x101 + x106 + x112 + x119 + x125
         + x126 + x131 + x150 <= 1
 clq52:  x4 + x13 + x20 + x21 + x22 + x30 + x32 + x34 + x50 + x58 + x60 + x65
         + x71 + x72 + x85 + x89 + x98 + x101 + x102 + x108 + x110 + x119
         + x128 + x129 + x131 + x136 + x137 + x143 <= 1
 clq53:  x4 + x5 + x12 + x24 + x37 + x40 + x43 + x50 + x58 + x63 + x65 + x66
         + x70 + x71 + x79 + x85 + x87 + x91 + x99 + x102 + x104 + x106 + x110
         + x114 + x128 + x138 + x142 <= 1
 clq54:  x1 + x4 + x39 + x40 + x46 + x49 + x50 + x51 + x53 + x59 + x61 + x66
         + x73 + x88 + x94 + x107 + x111 + x113 + x121 + x124 + x131 + x140
         + x141 + x145 + x146 + x148 <= 1
 clq55:  x19 + x22 + x23 + x24 + x28 + x37 + x38 + x47 + x51 + x55 + x65 + x67
         + x82 + x86 + x87 + x88 + x91 + x93 + x96 + x101 + x123 + x126 + x134
         + x135 + x139 + x142 + x144 + x145 <= 1
 clq56:  x6 + x9 + x11 + x12 + x15 + x16 + x18 + x23 + x32 + x37 + x48 + x49
         + x53 + x57 + x58 + x61 + x74 + x81 + x82 + x85 + x88 + x100 + x122
         + x127 + x133 + x136 + x147 + x148 <= 1
 clq57:  x3 + x5 + x6 + x21 + x23 + x47 + x57 + x61 + x72 + x85 + x86 + x87
         + x93 + x95 + x101 + x110 + x121 + x122 + x126 + x132 + x134 + x136
         + x140 + x148 + x149 + x150 <= 1
 clq58:  x1 + x3 + x4 + x35 + x40 + x44 + x45 + x59 + x65 + x77 + x79 + x80
         + x83 + x91 + x103 + x110 + x113 + x116 + x119 + x120 + x128 + x129
         + x141 <= 1
 clq59:  x2 + x3 + x10 + x12 + x16 + x30 + x33 + x34 + x35 + x42 + x44 + x45
         + x56 + x62 + x72 + x74 + x89 + x90 + x96 + x98 + x105 + x117 + x130
         + x132 + x134 + x149 <= 1
 clq60:  x33 + x35 + x37 + x38 + x41 + x42 + x43 + x54 + x68 + x70 + x71 + x81
         + x84 + x86 + x90 + x91 + x107 + x113 + x123 + x124 + x127 + x138
         + x140 + x150 <= 1
 clq61:  x3 + x5 + x6 + x13 + x14 + x20 + x37 + x38 + x48 + x54 + x73 + x77
         + x79 + x92 + x93 + x94 + x100 + x105 + x106 + x109 + x123 + x133
         + x141 + x144 <= 1
 clq62:  x3 + x7 + x9 + x14 + x25 + x27 + x33 + x34 + x36 + x38 + x40 + x41
         + x44 + x45 + x50 + x62 + x72 + x76 + x91 + x99 + x106 + x118 + x131
         + x138 + x139 + x144 <= 1
 clq63:  x1 + x2 + x4 + x5 + x6 + x14 + x18 + x25 + x38 + x51 + x57 + x72 + x79
         + x85 + x89 + x93 + x96 + x98 + x99 + x100 + x110 + x111 + x122 + x126
         + x139 + x149 + x150 <= 1
 clq64:  x21 + x22 + x24 + x29 + x30 + x44 + x49 + x51 + x71 + x75 + x76 + x78
         + x84 + x89 + x91 + x92 + x98 + x99 + x100 + x109 + x115 + x128 + x131
         + x134 + x141 <= 1
 clq65:  x1 + x6 + x11 + x12 + x13 + x26 + x43 + x46 + x57 + x60 + x77 + x78
         + x79 + x85 + x93 + x97 + x105 + x109 + x110 + x121 + x133 + x140
         + x141 + x142 + x148 + x149 <= 1
 clq66:  x1 + x2 + x4 + x33 + x38 + x44 + x49 + x52 + x57 + x59 + x65 + x68
         + x69 + x70 + x72 + x78 + x96 + x102 + x104 + x108 + x116 + x124
         + x129 + x135 + x139 + x145 <= 1
 clq67:  x1 + x3 + x9 + x10 + x12 + x13 + x14 + x34 + x39 + x50 + x57 + x59
         + x61 + x63 + x65 + x66 + x75 + x82 + x93 + x98 + x110 + x114 + x117
         + x123 + x130 + x135 <= 1
 clq68:  x8 + x18 + x33 + x34 + x39 + x41 + x50 + x56 + x60 + x64 + x72 + x74
         + x76 + x81 + x95 + x101 + x102 + x107 + x116 + x119 + x122 + x130
         + x136 <= 1
 clq69:  x2 + x6 + x7 + x16 + x27 + x39 + x45 + x48 + x50 + x56 + x58 + x88
         + x94 + x96 + x108 + x110 + x113 + x132 + x135 + x141 + x145 <= 1
 clq70:  x7 + x8 + x25 + x31 + x37 + x39 + x43 + x47 + x55 + x57 + x60 + x67
         + x81 + x86 + x87 + x88 + x93 + x95 + x101 + x104 + x122 + x123 + x126
         + x128 + x130 + x150 <= 1
 clq71:  x9 + x11 + x13 + x16 + x22 + x27 + x33 + x34 + x35 + x39 + x46 + x49
         + x58 + x65 + x66 + x69 + x70 + x71 + x81 + x85 + x97 + x106 + x114
         + x128 + x142 <= 1
 clq72:  x3 + x8 + x24 + x29 + x30 + x33 + x36 + x48 + x53 + x67 + x77 + x85
         + x86 + x88 + x94 + x95 + x99 + x101 + x111 + x112 + x121 + x128
         + x131 + x133 + x137 + x144 <= 1
 clq73:  x4 + x6 + x7 + x13 + x20 + x22 + x27 + x32 + x36 + x38 + x43 + x46
         + x50 + x58 + x77 + x88 + x91 + x92 + x100 + x106 + x110 + x112 + x126
         + x128 + x131 + x136 + x137 + x143 <= 1
 clq74:  x4 + x18 + x22 + x33 + x35 + x38 + x40 + x42 + x49 + x51 + x65 + x70
         + x71 + x75 + x84 + x91 + x99 + x107 + x111 + x113 + x114 + x120
         + x124 + x138 + x147 <= 1
 clq75:  x3 + x14 + x17 + x20 + x25 + x26 + x28 + x35 + x41 + x66 + x68 + x75
         + x87 + x90 + x91 + x92 + x94 + x96 + x118 + x123 + x124 + x126 + x143
         + x144 + x150 <= 1
 clq76:  x3 + x7 + x8 + x24 + x33 + x34 + x41 + x44 + x45 + x52 + x64 + x70
         + x72 + x73 + x76 + x90 + x91 + x95 + x96 + x98 + x101 + x130 + x133
         + x139 + x144 <= 1
 clq77:  x6 + x7 + x8 + x23 + x32 + x36 + x41 + x42 + x45 + x48 + x54 + x55
         + x56 + x61 + x72 + x76 + x101 + x103 + x108 + x109 + x113 + x116
         + x135 + x139 + x145 <= 1
 clq78:  x7 + x16 + x20 + x24 + x27 + x29 + x38 + x43 + x44 + x47 + x51 + x69
         + x75 + x76 + x77 + x86 + x96 + x113 + x116 + x118 + x122 + x125
         + x132 + x141 <= 1
 clq79:  x4 + x5 + x19 + x24 + x29 + x38 + x49 + x53 + x68 + x69 + x70 + x73
         + x78 + x87 + x90 + x100 + x104 + x106 + x111 + x127 + x133 + x139
         + x140 + x146 + x148 <= 1
 clq80:  x5 + x7 + x13 + x16 + x17 + x20 + x25 + x29 + x33 + x36 + x50 + x57
         + x60 + x64 + x77 + x85 + x94 + x95 + x98 + x101 + x112 + x125 + x129
         + x133 + x139 <= 1
 clq81:  x8 + x11 + x24 + x28 + x30 + x40 + x43 + x54 + x59 + x71 + x75 + x76
         + x79 + x91 + x97 + x102 + x104 + x111 + x127 + x138 + x140 + x150
         <= 1
 clq82:  x7 + x19 + x24 + x27 + x28 + x29 + x36 + x41 + x48 + x54 + x56 + x58
         + x60 + x62 + x73 + x92 + x99 + x112 + x124 + x131 + x133 + x137
         + x139 + x144 + x150 <= 1
 clq83:  x13 + x16 + x19 + x29 + x38 + x39 + x42 + x44 + x47 + x48 + x49 + x65
         + x67 + x73 + x84 + x93 + x100 + x108 + x116 + x140 + x145 <= 1
 clq84:  x9 + x13 + x15 + x23 + x28 + x29 + x30 + x37 + x42 + x51 + x65 + x66
         + x67 + x68 + x69 + x71 + x97 + x101 + x109 + x110 + x123 + x126
         + x128 + x134 + x142 <= 1
 clq85:  x3 + x10 + x17 + x19 + x23 + x24 + x27 + x28 + x29 + x45 + x54 + x56
         + x64 + x76 + x84 + x97 + x103 + x133 + x134 + x135 + x139 + x145
         + x149 <= 1
 clq86:  x1 + x8 + x9 + x18 + x26 + x31 + x37 + x39 + x45 + x46 + x72 + x80
         + x85 + x91 + x93 + x97 + x99 + x100 + x101 + x103 + x106 + x110
         + x111 + x126 + x131 + x136 + x140 + x143 <= 1
 clq87:  x11 + x22 + x27 + x32 + x34 + x36 + x43 + x54 + x64 + x69 + x76 + x77
         + x81 + x102 + x104 + x105 + x106 + x109 + x122 + x127 + x135 + x136
         + x147 <= 1
 clq88:  x5 + x6 + x8 + x17 + x18 + x21 + x32 + x50 + x52 + x61 + x64 + x72
         + x74 + x81 + x95 + x101 + x103 + x107 + x112 + x114 + x119 + x121
         + x143 + x144 + x150 <= 1
 clq89:  x4 + x5 + x7 + x14 + x19 + x22 + x34 + x39 + x42 + x51 + x66 + x70
         + x80 + x82 + x87 + x89 + x90 + x96 + x105 + x110 + x114 + x118 + x123
         + x129 + x146 <= 1
 clq90:  x2 + x10 + x19 + x26 + x27 + x28 + x38 + x43 + x51 + x54 + x59 + x65
         + x75 + x78 + x89 + x91 + x92 + x93 + x96 + x110 + x114 + x117 + x132
         + x134 <= 1
 clq91:  x1 + x3 + x5 + x8 + x13 + x32 + x36 + x54 + x57 + x61 + x62 + x64
         + x67 + x77 + x79 + x82 + x93 + x94 + x101 + x104 + x109 + x116 + x121
         + x133 + x139 + x140 <= 1
 clq92:  x8 + x16 + x17 + x23 + x27 + x31 + x32 + x47 + x52 + x64 + x69 + x78
         + x79 + x80 + x92 + x94 + x97 + x100 + x102 + x107 + x117 + x127
         + x135 + x139 + x142 <= 1
 clq93:  x4 + x19 + x24 + x29 + x36 + x45 + x47 + x48 + x61 + x63 + x66 + x69
         + x73 + x75 + x88 + x106 + x111 + x113 + x118 + x127 + x131 + x138
         + x139 + x140 + x148 + x150 <= 1
 clq94:  x7 + x19 + x28 + x29 + x39 + x42 + x43 + x47 + x65 + x80 + x81 + x84
         + x86 + x87 + x93 + x96 + x101 + x104 + x108 + x111 + x114 + x116
         + x132 + x135 + x142 <= 1
 clq95:  x1 + x2 + x7 + x17 + x45 + x50 + x52 + x61 + x83 + x94 + x95 + x101
         + x103 + x111 + x112 + x116 + x121 + x124 + x131 + x133 + x137 + x140
         + x141 + x146 + x150 <= 1
 clq96:  x3 + x8 + x10 + x17 + x19 + x21 + x24 + x26 + x27 + x29 + x31 + x41
         + x52 + x62 + x68 + x75 + x78 + x91 + x99 + x100 + x103 + x115 + x126
         + x132 + x144 <= 1
 clq97:  x14 + x19 + x27 + x28 + x34 + x39 + x42 + x46 + x48 + x53 + x54 + x59
         + x63 + x83 + x86 + x90 + x96 + x108 + x110 + x114 + x117 + x124
         + x129 + x137 + x143 + x145 <= 1
 clq98:  x11 + x19 + x24 + x28 + x38 + x40 + x51 + x59 + x63 + x65 + x90 + x110
         + x111 + x114 + x119 + x121 + x132 + x134 + x135 + x142 + x145 + x146
         + x148 <= 1
 clq99:  x3 + x5 + x6 + x10 + x12 + x24 + x26 + x31 + x41 + x52 + x62 + x64
         + x73 + x77 + x78 + x79 + x87 + x92 + x94 + x100 + x106 + x109 + x133
         + x144 + x149 <= 1
 clq100: x9 + x13 + x21 + x22 + x34 + x44 + x46 + x51 + x59 + x72 + x74 + x76
         + x91 + x93 + x98 + x101 + x107 + x109 + x131 + x134 + x136 + x144
         + x145 + x146 <= 1
 clq101: x4 + x5 + x6 + x12 + x13 + x18 + x19 + x23 + x31 + x32 + x36 + x38
         + x58 + x62 + x73 + x78 + x92 + x100 + x101 + x108 + x116 + x118
         + x131 + x133 + x134 + x136 + x144 + x150 <= 1
 clq102: x1 + x2 + x8 + x10 + x15 + x26 + x27 + x28 + x35 + x46 + x51 + x54
         + x56 + x64 + x69 + x77 + x78 + x79 + x94 + x97 + x103 + x126 + x129
         + x135 + x141 <= 1
 clq103: x11 + x16 + x18 + x21 + x23 + x25 + x30 + x32 + x34 + x35 + x51 + x52
         + x57 + x75 + x76 + x89 + x94 + x99 + x102 + x118 + x120 + x132 + x138
         + x149 <= 1
 clq104: x27 + x28 + x34 + x39 + x48 + x51 + x59 + x65 + x67 + x74 + x81 + x83
         + x86 + x88 + x89 + x91 + x93 + x107 + x117 + x123 + x128 + x129
         + x136 + x143 + x144 <= 1
 clq105: x10 + x15 + x16 + x23 + x30 + x35 + x42 + x61 + x68 + x69 + x75 + x82
         + x86 + x87 + x89 + x90 + x95 + x110 + x113 + x117 + x118 + x123
         + x130 + x134 + x149 + x150 <= 1
 clq106: x2 + x14 + x15 + x18 + x20 + x28 + x35 + x40 + x46 + x51 + x56 + x64
         + x67 + x73 + x79 + x91 + x92 + x94 + x97 + x98 + x102 + x107 + x117
         + x124 + x150 <= 1
 clq107: x1 + x2 + x3 + x4 + x5 + x6 + x7 + x32 + x38 + x45 + x72 + x73 + x95
         + x98 + x101 + x112 + x123 + x129 + x130 + x131 + x133 + x139 + x149
         + x150 <= 1
 clq108: x7 + x8 + x19 + x28 + x34 + x43 + x47 + x75 + x77 + x80 + x86 + x87
         + x91 + x93 + x101 + x104 + x106 + x110 + x114 + x115 + x116 + x118
         + x132 + x135 + x143 + x146 <= 1
 clq109: x12 + x30 + x39 + x42 + x59 + x65 + x69 + x71 + x72 + x74 + x82 + x86
         + x87 + x88 + x89 + x95 + x101 + x113 + x117 + x123 + x129 + x140
         + x146 <= 1
 clq110: x1 + x2 + x8 + x9 + x12 + x14 + x15 + x26 + x40 + x44 + x45 + x46
         + x55 + x56 + x70 + x82 + x83 + x85 + x88 + x91 + x110 + x120 + x126
         + x129 + x130 + x131 + x138 + x141 <= 1
 clq111: x22 + x23 + x24 + x30 + x34 + x38 + x54 + x62 + x65 + x67 + x68 + x71
         + x72 + x85 + x86 + x87 + x89 + x99 + x101 + x104 + x110 + x115 + x130
         + x137 + x138 + x139 + x147 + x149 <= 1
 clq112: x21 + x24 + x36 + x40 + x41 + x44 + x45 + x56 + x72 + x76 + x79 + x85
         + x89 + x91 + x99 + x101 + x107 + x119 + x120 + x122 + x132 + x144
         + x148 <= 1
 clq113: x2 + x4 + x6 + x10 + x11 + x23 + x27 + x35 + x48 + x51 + x82 + x83
         + x89 + x92 + x93 + x94 + x97 + x100 + x105 + x110 + x115 + x141
         + x147 + x149 <= 1
 clq114: x4 + x15 + x24 + x25 + x26 + x27 + x33 + x35 + x38 + x59 + x65 + x69
         + x70 + x77 + x78 + x89 + x94 + x126 + x129 + x130 + x131 + x137
         + x144 + x147 + x149 <= 1
 clq115: x3 + x24 + x26 + x35 + x36 + x38 + x40 + x41 + x44 + x45 + x68 + x72
         + x85 + x91 + x99 + x110 + x111 + x113 + x119 + x120 + x124 + x128
         + x131 + x138 + x148 <= 1
 clq116: x2 + x4 + x19 + x38 + x43 + x44 + x51 + x52 + x57 + x75 + x78 + x91
         + x92 + x96 + x98 + x99 + x100 + x101 + x110 + x112 + x114 + x115
         + x124 + x134 + x139 <= 1
 clq117: x5 + x14 + x20 + x22 + x23 + x37 + x68 + x71 + x80 + x82 + x84 + x87
         + x90 + x100 + x104 + x105 + x108 + x109 + x115 + x120 + x123 + x127
         + x136 + x142 + x147 <= 1
 clq118: x5 + x7 + x8 + x13 + x16 + x17 + x20 + x22 + x27 + x35 + x39 + x40
         + x46 + x64 + x66 + x71 + x82 + x85 + x91 + x112 + x129 + x141 + x142
         + x147 + x150 <= 1
 clq119: x1 + x4 + x11 + x13 + x33 + x40 + x44 + x46 + x51 + x60 + x61 + x67
         + x74 + x77 + x88 + x107 + x112 + x115 + x118 + x121 + x144 + x146
         + x147 + x148 <= 1
 clq120: x1 + x4 + x5 + x11 + x29 + x43 + x44 + x47 + x49 + x52 + x57 + x64
         + x69 + x70 + x78 + x95 + x107 + x118 + x125 + x127 + x134 + x140
         + x141 + x146 + x150 <= 1
 clq121: x8 + x12 + x13 + x17 + x18 + x20 + x22 + x23 + x30 + x32 + x36 + x50
         + x56 + x66 + x69 + x72 + x78 + x85 + x89 + x101 + x108 + x126 + x129
         + x131 + x137 + x139 + x144 + x145 <= 1
 clq122: x8 + x11 + x29 + x39 + x44 + x47 + x48 + x55 + x59 + x63 + x76 + x83
         + x86 + x104 + x108 + x111 + x113 + x116 + x132 + x141 + x142 + x145
         + x147 <= 1
 clq123: x7 + x11 + x12 + x15 + x29 + x33 + x37 + x38 + x44 + x45 + x48 + x57
         + x67 + x85 + x88 + x91 + x93 + x100 + x109 + x122 + x124 + x125
         + x128 + x129 + x133 + x136 + x142 + x144 + x148 + x150 <= 1
 clq124: x1 + x11 + x13 + x28 + x34 + x38 + x39 + x41 + x43 + x47 + x59 + x65
         + x67 + x71 + x91 + x102 + x104 + x107 + x109 + x110 + x116 + x120
         + x130 + x132 + x135 + x136 + x137 + x142 + x143 + x146 <= 1
 clq125: x10 + x11 + x13 + x15 + x29 + x48 + x49 + x55 + x59 + x66 + x69 + x73
         + x74 + x76 + x78 + x95 + x97 + x104 + x107 + x109 + x125 + x127
         + x133 + x146 + x148 + x150 <= 1
 clq126: x6 + x10 + x17 + x19 + x26 + x32 + x52 + x54 + x64 + x78 + x79 + x98
         + x100 + x103 + x106 + x114 + x127 + x135 + x137 + x143 + x144 + x145
         + x149 <= 1
 clq127: x1 + x4 + x15 + x23 + x32 + x37 + x38 + x45 + x46 + x65 + x67 + x72
         + x85 + x88 + x93 + x100 + x101 + x103 + x108 + x120 + x126 + x128
         + x129 + x131 + x136 + x142 + x144 <= 1
 clq128: x8 + x9 + x13 + x35 + x36 + x41 + x44 + x47 + x48 + x55 + x60 + x76
         + x78 + x107 + x113 + x117 + x118 + x127 + x131 + x132 + x136 + x146
         + x147 + x150 <= 1
 clq129: x4 + x13 + x15 + x28 + x29 + x43 + x47 + x51 + x55 + x60 + x69 + x71
         + x76 + x87 + x101 + x112 + x116 + x118 + x119 + x120 + x125 + x134
         + x136 + x146 <= 1
 clq130: x1 + x2 + x16 + x25 + x31 + x32 + x51 + x56 + x64 + x69 + x70 + x72
         + x79 + x80 + x82 + x96 + x97 + x101 + x102 + x105 + x116 + x119
         + x120 + x129 + x135 <= 1
 clq131: x4 + x15 + x20 + x24 + x25 + x28 + x30 + x34 + x53 + x60 + x68 + x69
         + x87 + x89 + x101 + x102 + x110 + x119 + x120 + x123 + x128 + x129
         + x130 <= 1
 clq132: x7 + x12 + x17 + x24 + x25 + x32 + x38 + x40 + x50 + x52 + x65 + x70
         + x77 + x88 + x91 + x92 + x94 + x100 + x101 + x106 + x135 + x137
         + x139 + x144 + x146 <= 1
 clq133: x2 + x12 + x15 + x16 + x32 + x35 + x42 + x43 + x55 + x56 + x58 + x73
         + x74 + x84 + x97 + x105 + x108 + x116 + x120 + x134 <= 1
 clq134: x8 + x12 + x16 + x18 + x22 + x31 + x35 + x37 + x39 + x46 + x60 + x64
         + x70 + x71 + x81 + x85 + x95 + x98 + x107 + x113 + x122 + x129 + x130
         + x141 + x147 + x150 <= 1
 clq135: x3 + x5 + x12 + x24 + x26 + x33 + x35 + x37 + x41 + x44 + x49 + x52
         + x64 + x70 + x72 + x73 + x90 + x91 + x92 + x96 + x98 + x124 + x130
         + x133 + x150 <= 1
 clq136: x1 + x4 + x11 + x12 + x30 + x31 + x33 + x35 + x36 + x43 + x46 + x57
         + x58 + x60 + x75 + x78 + x85 + x95 + x99 + x105 + x125 + x133 + x134
         + x136 + x140 + x150 <= 1
 clq137: x3 + x19 + x27 + x38 + x41 + x42 + x47 + x48 + x49 + x53 + x68 + x73
         + x75 + x78 + x84 + x91 + x104 + x111 + x113 + x128 + x130 + x148 <= 1
 clq138: x10 + x15 + x21 + x27 + x42 + x44 + x46 + x47 + x61 + x63 + x77 + x79
         + x82 + x86 + x93 + x104 + x110 + x118 + x121 + x122 + x126 + x130
         + x135 + x147 + x148 + x149 <= 1
 clq139: x2 + x3 + x4 + x18 + x20 + x32 + x35 + x40 + x45 + x52 + x64 + x74
         + x77 + x79 + x80 + x82 + x83 + x91 + x97 + x100 + x103 + x112 + x114
         + x116 + x119 + x120 + x129 <= 1
 clq140: x5 + x8 + x14 + x17 + x19 + x22 + x24 + x31 + x40 + x54 + x61 + x62
         + x64 + x70 + x77 + x79 + x81 + x87 + x90 + x100 + x106 + x114 + x127
         + x138 + x144 + x147 <= 1
 clq141: x3 + x6 + x9 + x10 + x20 + x22 + x27 + x38 + x44 + x48 + x50 + x76
         + x78 + x93 + x103 + x105 + x111 + x130 + x141 + x144 + x148 + x150
         <= 1
 clq142: x6 + x8 + x13 + x19 + x27 + x28 + x40 + x42 + x51 + x54 + x60 + x64
         + x73 + x76 + x77 + x79 + x83 + x93 + x96 + x116 + x117 + x139 + x144
         <= 1
 clq143: x5 + x6 + x9 + x17 + x20 + x32 + x35 + x37 + x38 + x41 + x47 + x58
         + x68 + x71 + x91 + x92 + x100 + x106 + x115 + x122 + x126 + x127
         + x128 + x131 + x136 + x142 <= 1
 clq144: x9 + x11 + x18 + x33 + x34 + x35 + x46 + x49 + x62 + x70 + x71 + x76
         + x80 + x83 + x91 + x97 + x106 + x115 + x125 + x134 + x136 + x146 <= 1
 clq145: x2 + x8 + x10 + x16 + x20 + x21 + x23 + x32 + x47 + x51 + x53 + x56
         + x64 + x72 + x79 + x80 + x84 + x91 + x98 + x107 + x109 + x114 + x122
         + x137 + x147 <= 1
 clq146: x10 + x13 + x16 + x29 + x43 + x44 + x47 + x51 + x57 + x60 + x61 + x63
         + x75 + x76 + x84 + x93 + x98 + x100 + x107 + x109 + x125 + x132
         + x134 + x135 + x141 + x148 + x150 <= 1
 clq147: x3 + x16 + x17 + x27 + x32 + x36 + x50 + x56 + x66 + x72 + x73 + x81
         + x85 + x88 + x99 + x102 + x105 + x121 + x124 + x125 + x136 + x138
         + x143 + x148 + x150 <= 1
 clq148: x8 + x9 + x12 + x13 + x15 + x23 + x28 + x29 + x48 + x55 + x59 + x66
         + x67 + x73 + x81 + x83 + x88 + x92 + x93 + x97 + x101 + x104 + x108
         + x109 + x123 + x128 + x133 + x141 + x150 <= 1
 clq149: x3 + x5 + x20 + x21 + x37 + x52 + x57 + x86 + x92 + x94 + x96 + x98
         + x101 + x105 + x115 + x124 + x130 + x141 + x143 + x144 <= 1
 clq150: x1 + x10 + x14 + x30 + x31 + x33 + x34 + x35 + x44 + x46 + x51 + x57
         + x60 + x68 + x70 + x72 + x86 + x96 + x105 + x118 + x123 + x129 + x133
         + x144 + x146 <= 1
 clq151: x2 + x9 + x10 + x23 + x27 + x28 + x34 + x42 + x45 + x46 + x54 + x59
         + x65 + x82 + x93 + x97 + x110 + x114 + x117 + x123 + x134 + x135
         + x139 + x145 + x149 <= 1
 clq152: x1 + x2 + x5 + x25 + x43 + x44 + x47 + x51 + x63 + x65 + x67 + x78
         + x80 + x84 + x89 + x91 + x93 + x98 + x100 + x109 + x110 + x115 + x123
         + x131 + x134 + x139 + x146 <= 1
 clq153: x6 + x7 + x14 + x15 + x17 + x20 + x24 + x25 + x33 + x35 + x36 + x41
         + x53 + x56 + x77 + x82 + x83 + x85 + x86 + x89 + x91 + x95 + x111
         + x122 + x125 + x131 + x133 + x144 <= 1
 clq154: x19 + x34 + x38 + x41 + x43 + x44 + x47 + x52 + x59 + x70 + x75 + x76
         + x77 + x86 + x91 + x96 + x101 + x102 + x116 + x117 + x130 + x132
         + x135 + x146 <= 1
 clq155: x1 + x6 + x9 + x13 + x15 + x16 + x21 + x30 + x37 + x44 + x46 + x57
         + x68 + x72 + x82 + x85 + x101 + x105 + x108 + x109 + x110 + x121
         + x133 + x134 + x136 + x142 + x149 + x150 <= 1
 clq156: x4 + x7 + x12 + x24 + x25 + x32 + x37 + x40 + x43 + x50 + x58 + x65
         + x66 + x70 + x83 + x85 + x88 + x91 + x101 + x104 + x106 + x110 + x113
         + x128 + x138 <= 1
 clq157: x1 + x9 + x11 + x16 + x28 + x35 + x51 + x59 + x63 + x65 + x67 + x69
         + x71 + x74 + x75 + x78 + x80 + x86 + x107 + x117 + x125 + x132 + x134
         + x136 + x140 + x143 <= 1
Bounds
 0 <= x1 <= 1
 0 <= x2 <= 1
 0 <= x3 <= 1
 0 <= x4 <= 1
 0 <= x5 <= 1
 0 <= x6 <= 1
 0 <= x7 <= 1
 0 <= x8 <= 1
 0 <= x9 <= 1
 0 <= x10 <= 1
 0 <= x11 <= 1
 0 <= x12 <= 1
 0 <= x13 <= 1
 0 <= x14 <= 1
 0 <= x15 <= 1
 0 <= x16 <= 1
 0 <= x17 <= 1
 0 <= x18 <= 1
 0 <= x19 <= 1
 0 <= x20 <= 1
 0 <= x21 <= 1
 0 <= x22 <= 1
 0 <= x23 <= 1
 0 <= x24 <= 1
 0 <= x25 <= 1
 0 <= x26 <= 1
 0 <= x27 <= 1
 0 <= x28 <= 1
 0 <= x29 <= 1
 0 <= x30 <= 1
 0 <= x31 <= 1
 0 <= x32 <= 1
 0 <= x33 <= 1
 0 <= x34 <= 1
 0 <= x35 <= 1
 0 <= x36 <= 1
 0 <= x37 <= 1
 0 <= x38 <= 1
 0 <= x39 <= 1
 0 <= x40 <= 1
 0 <= x41 <= 1
 0 <= x42 <= 1
 0 <= x43 <= 1
 0 <= x44 <= 1
 0 <= x45 <= 1
 0 <= x46 <= 1
 0 <= x47 <= 1
 0 <= x48 <= 1
 0 <= x49 <= 1
 0 <= x50 <= 1
 0 <= x51 <= 1
 0 <= x52 <= 1
 0 <= x53 <= 1
 0 <= x54 <= 1
 0 <= x55 <= 1
 0 <= x56 <= 1
 0 <= x57 <= 1
 0 <= x58 <= 1
 0 <= x59 <= 1
 0 <= x60 <= 1
 0 <= x61 <= 1
 0 <= x62 <= 1
 0 <= x63 <= 1
 0 <= x64 <= 1
 0 <= x65 <= 1
 0 <= x66 <= 1
 0 <= x67 <= 1
 0 <= x68 <= 1
 0 <= x69 <= 1
 0 <= x70 <= 1
 0 <= x71 <= 1
 0 <= x72 <= 1
 0 <= x73 <= 1
 0 <= x74 <= 1
 0 <= x75 <= 1
 0 <= x76 <= 1
 0 <= x77 <= 1
 0 <= x78 <= 1
 0 <= x79 <= 1
 0 <= x80 <= 1
 0 <= x81 <= 1
 0 <= x82 <= 1
 0 <= x83 <= 1
 0 <= x84 <= 1
 0 <= x85 <= 1
 0 <= x86 <= 1
 0 <= x87 <= 1
 0 <= x88 <= 1
 0 <= x89 <= 1
 0 <= x90 <= 1
 0 <= x91 <= 1
 0 <= x92 <= 1
 0 <= x93 <= 1
 0 <= x94 <= 1
 0 <= x95 <= 1
 0 <= x96 <= 1
 0 <= x97 <= 1
 0 <= x98 <= 1
 0 <= x99 <= 1
 0 <= x100 <= 1
 0 <= x101 <= 1
 0 <= x102 <= 1
 0 <= x103 <= 1
 0 <= x104 <= 1
 0 <= x105 <= 1
 0 <= x106 <= 1
 0 <= x107 <= 1
 0 <= x108 <= 1
 0 <= x109 <= 1
 0 <= x110 <= 1
 0 <= x111 <= 1
 0 <= x112 <= 1
 0 <= x113 <= 1
 0 <= x114 <= 1
 0 <= x115 <= 1
 0 <= x116 <= 1
 0 <= x117 <= 1
 0 <= x118 <= 1
 0 <= x119 <= 1
 0 <= x120 <= 1
 0 <= x121 <= 1
 0 <= x122 <= 1
 0 <= x123 <= 1
 0 <= x124 <= 1
 0 <= x125 <= 1
 0 <= x126 <= 1
 0 <= x127 <= 1
 0 <= x128 <= 1
 0 <= x129 <= 1
 0 <= x130 <= 1
 0 <= x131 <= 1
 0 <= x132 <= 1
 0 <= x133 <= 1
 0 <= x134 <= 1
 0 <= x135 <= 1
 0 <= x136 <= 1
 0 <= x137 <= 1
 0 <= x138 <= 1
 0 <= x139 <= 1
 0 <= x140 <= 1
 0 <= x141 <= 1
 0 <= x142 <= 1
 0 <= x143 <= 1
 0 <= x144 <= 1
 0 <= x145 <= 1
 0 <= x146 <= 1
 0 <= x147 <= 1
 0 <= x148 <= 1
 0 <= x149 <= 1
 0 <= x150 <= 1
Binaries
 x1  x2  x3  x4  x5  x6  x7  x8  x9  x10  x11  x12  x13  x14  x15  x16  x17 
 x18  x19  x20  x21  x22  x23  x24  x25  x26  x27  x28  x29  x30  x31  x32 
 x33  x34  x35  x36  x37  x38  x39  x40  x41  x42  x43  x44  x45  x46  x47 
 x48  x49  x50  x51  x52  x53  x54  x55  x56  x57  x58  x59  x60  x61  x62 
 x63  x64  x65  x66  x67  x68  x69  x70  x71  x72  x73  x74  x75  x76  x77 
 x78  x79  x80  x81  x82  x83  x84  x85  x86  x87  x88  x89  x90  x91  x92 
 x93  x94  x95  x96  x97  x98  x99  x100  x101  x102  x103  x104  x105  x106 
 x107  x108  x109  x110  x111  x112  x113  x114  x115  x116  x117  x118  x119 
 x120  x121  x122  x123  x124  x125  x126  x127  x128  x129  x130  x131  x132 
 x133  x134  x135  x136  x137  x138  x139  x140  x141  x142  x143  x144  x145 
 x146  x147  x148  x149  x150 
End
